1774666
11,55,28,24,29,40,5,22,48,18,59,4,39,31,0,53,12,46,19,3,47,1,26,16,8,57,14,7,35,58,15,62,23,60,41,2,20,37,63,66,6,42,45,33,54,25,65,10,64,44,67,34,50,38,61,36,52,49,27,30,21,51,32,56,17,9,13,43